Reading model...
...model read.
creating competitive generators file...
...competitive generators recorded.
Loading data...
.. real-time data read.
Compiling instance...
...instance created.
Creating Offer Mitigation (model will solve as dispatch if TRUE)...
...storage offer mitigation file created
Converting model to MPEC...
...converted
NOTE: initial MIP solve with only storage competitive to get feasible solution
Solving...

Welcome to IBM(R) ILOG(R) CPLEX(R) Interactive Optimizer 12.9.0.0
  with Simplex, Mixed Integer & Barrier Optimizers
5725-A06 5725-A29 5724-Y48 5724-Y49 5724-Y54 5724-Y55 5655-Y21
Copyright IBM Corp. 1988, 2019.  All Rights Reserved.

Type 'help' for a list of available commands.
Type 'help' followed by a command name for more
information on commands.

CPLEX> Logfile 'cplex.log' closed.
Logfile 'C:\Users\llavin\Desktop\test826\logs\tmp8o05l5lh.cplex.log' open.
CPLEX> New value for parallel optimization mode: -1
CPLEX> New value for mixed integer optimality gap tolerance: 0.01
CPLEX> New value for emphasis for MIP optimization: 1
CPLEX> New value for integrality tolerance: 1e-12
CPLEX> New value for deterministic time limit in ticks: 150000
CPLEX> Problem 'C:\Users\llavin\Desktop\test826\logs\tmpca5lvww7.pyomo.lp' read.
Read time = 0.52 sec. (28.17 ticks)
CPLEX> Problem name         : C:\Users\llavin\Desktop\test826\logs\tmpca5lvww7.pyomo.lp
Objective sense      : Maximize
Variables            :  107795  [Nneg: 1,  Box: 44062,  Free: 8928,
                                 Binary: 54804]
Objective nonzeros   :   17428
Linear constraints   :  247027  [Less: 82874,  Greater: 118442,  Equal: 45711]
  Nonzeros           :  624881
  RHS nonzeros       :  134905

Variables            : Min LB: -5000.000        Max UB: 1000000.       
Objective nonzeros   : Min   : 0.02500000       Max   : 208.3333       
Linear constraints   :
  Nonzeros           : Min   : 0.02500000       Max   : 1000000.       
  RHS nonzeros       : Min   : 0.02500000       Max   : 1000000.       
CPLEX> CPXPARAM_Parallel                                -1
CPXPARAM_Emphasis_MIP                            1
CPXPARAM_DetTimeLimit                            150000
CPXPARAM_MIP_Tolerances_MIPGap                   0.01
CPXPARAM_MIP_Tolerances_Integrality              9.9999999999999998e-13
Tried aggregator 3 times.
MIP Presolve eliminated 181606 rows and 41587 columns.
MIP Presolve added 6048 rows and 0 columns.
MIP Presolve modified 52213 coefficients.
Aggregator did 25836 substitutions.
Reduced MIP has 45633 rows, 38740 columns, and 153479 nonzeros.
Reduced MIP has 15239 binaries, 0 generals, 0 SOSs, and 0 indicators.
Presolve time = 0.67 sec. (426.48 ticks)
Probing fixed 1016 vars, tightened 8710 bounds.
Probing time = 0.38 sec. (15.73 ticks)
Tried aggregator 2 times.
MIP Presolve eliminated 2305 rows and 2032 columns.
MIP Presolve modified 5447 coefficients.
Aggregator did 48 substitutions.
Reduced MIP has 43280 rows, 36660 columns, and 132720 nonzeros.
Reduced MIP has 14223 binaries, 0 generals, 0 SOSs, and 0 indicators.
Presolve time = 0.23 sec. (227.03 ticks)
Probing fixed 0 vars, tightened 287 bounds.
Probing time = 0.50 sec. (16.07 ticks)
Clique table members: 87086.
MIP emphasis: integer feasibility.
MIP search method: dynamic search.
Parallel mode: opportunistic, using up to 32 threads.
Root relaxation solution time = 1.14 sec. (1762.77 ticks)

        Nodes                                         Cuts/
   Node  Left     Objective  IInf  Best Integer    Best Bound    ItCnt     Gap

      0     0     3960.3263   785                   3960.3263    10598         
*     0+    0                         3960.2997     3960.3263             0.00%

Root node processing (before b&c):
  Real time             =    5.17 sec. (5191.29 ticks)
Parallel b&c, 32 threads:
  Real time             =    0.00 sec. (0.00 ticks)
  Sync time (average)   =    0.00 sec.
  Wait time (average)   =    0.00 sec.
                          ------------
Total (root+branch&cut) =    5.17 sec. (5191.29 ticks)

Solution pool: 1 solution saved.

MIP - Integer optimal, tolerance (0.01/1e-06):  Objective =  3.9602997360e+03
Current MIP best bound =  3.9603262548e+03 (gap = 0.0265188, 0.00%)
Solution time =    5.19 sec.  Iterations = 10598  Nodes = 0 (1)
Deterministic time = 5191.60 ticks  (1000.69 ticks/sec)

CPLEX> Incumbent solution written to file 'C:\Users\llavin\Desktop\test826\logs\tmpjrhgin_p.cplex.sol'.
CPLEX> NOTE: no warmstart specified for MIP iteration, default behavior is true
NOTE: resolving with all competitive generators using storage-only solution to warmstart
Solving...

Welcome to IBM(R) ILOG(R) CPLEX(R) Interactive Optimizer 12.9.0.0
  with Simplex, Mixed Integer & Barrier Optimizers
5725-A06 5725-A29 5724-Y48 5724-Y49 5724-Y54 5724-Y55 5655-Y21
Copyright IBM Corp. 1988, 2019.  All Rights Reserved.

Type 'help' for a list of available commands.
Type 'help' followed by a command name for more
information on commands.

CPLEX> Logfile 'cplex.log' closed.
Logfile 'C:\Users\llavin\Desktop\test826\logs\tmpj5xi12f6.cplex.log' open.
CPLEX> New value for parallel optimization mode: -1
CPLEX> New value for mixed integer optimality gap tolerance: 0.01
CPLEX> New value for emphasis for MIP optimization: 1
CPLEX> New value for integrality tolerance: 1e-12
CPLEX> New value for deterministic time limit in ticks: 150000
CPLEX> Problem 'C:\Users\llavin\Desktop\test826\logs\tmppb09wpc5.pyomo.lp' read.
Read time = 0.53 sec. (28.22 ticks)
CPLEX> MIP start file 'C:\Users\llavin\Desktop\test826\logs\tmpgyu5jrog.cplex.mst' read.
CPLEX> Problem name         : C:\Users\llavin\Desktop\test826\logs\tmppb09wpc5.pyomo.lp
Objective sense      : Maximize
Variables            :  109235  [Nneg: 1,  Box: 45502,  Free: 8928,
                                 Binary: 54804]
Objective nonzeros   :   18820
Linear constraints   :  247027  [Less: 82874,  Greater: 118442,  Equal: 45711]
  Nonzeros           :  624881
  RHS nonzeros       :  134905

Variables            : Min LB: -5000.000        Max UB: 1000000.       
Objective nonzeros   : Min   : 0.02500000       Max   : 208.3333       
Linear constraints   :
  Nonzeros           : Min   : 0.02500000       Max   : 1000000.       
  RHS nonzeros       : Min   : 0.02500000       Max   : 1000000.       
CPLEX> CPXPARAM_Parallel                                -1
CPXPARAM_Emphasis_MIP                            1
CPXPARAM_DetTimeLimit                            150000
CPXPARAM_MIP_Tolerances_MIPGap                   0.01
CPXPARAM_MIP_Tolerances_Integrality              9.9999999999999998e-13
Warning:  No solution found from 1 MIP starts.
Retaining values of one MIP start for possible repair.
Tried aggregator 3 times.
MIP Presolve eliminated 181606 rows and 43027 columns.
MIP Presolve added 6048 rows and 0 columns.
MIP Presolve modified 52213 coefficients.
Aggregator did 25836 substitutions.
Reduced MIP has 45633 rows, 38740 columns, and 153479 nonzeros.
Reduced MIP has 15239 binaries, 0 generals, 0 SOSs, and 0 indicators.
Presolve time = 0.67 sec. (427.24 ticks)
Probing fixed 1016 vars, tightened 8710 bounds.
Probing time = 0.38 sec. (15.73 ticks)
Tried aggregator 2 times.
MIP Presolve eliminated 2305 rows and 2032 columns.
MIP Presolve modified 5447 coefficients.
Aggregator did 48 substitutions.
Reduced MIP has 43280 rows, 36660 columns, and 132720 nonzeros.
Reduced MIP has 14223 binaries, 0 generals, 0 SOSs, and 0 indicators.
Presolve time = 0.23 sec. (227.03 ticks)
Probing fixed 0 vars, tightened 287 bounds.
Probing time = 0.50 sec. (16.07 ticks)
Clique table members: 87086.
MIP emphasis: integer feasibility.
MIP search method: dynamic search.
Parallel mode: opportunistic, using up to 32 threads.
Root relaxation solution time = 1.19 sec. (1750.94 ticks)

        Nodes                                         Cuts/
   Node  Left     Objective  IInf  Best Integer    Best Bound    ItCnt     Gap

      0     0     5401.6400   829                   5401.6400    10694         
      0     0     5401.6400    55                Flowcuts: 31    10700         
      0     0     5401.6400    54                    Cuts: 33    10708         
      0     0     5401.6400    29                    Cuts: 13    10711         
Repair heuristic found nothing.
      0     4     5105.5530    19                   Covers: 1    10723         
Elapsed time = 9.20 sec. (5467.34 ticks, tree = 0.02 MB, solutions = 0)
    491   170    infeasible                         5400.3072    11708         
    934   436    infeasible                         5400.3072    16290         
   1252   578    infeasible                         5400.3072    20632         
   1454   734    infeasible                         5400.3072    30628         
   1789   904   -46157.3272    28                   5400.3072    38555         
   2165   944    infeasible                         5400.3072    42011         
   2532  1150     5399.5103    14                   5400.3072    49126         
   2872  1304    infeasible                         5400.3072    53986         
*  3131+ 1441                         5399.5103     5400.3072             0.01%
   3167  1673     3923.2700    27     5399.5103     5400.3072    66364    0.01%

Cover cuts applied:  6
Flow cuts applied:  27

Root node processing (before b&c):
  Real time             =    7.30 sec. (5446.98 ticks)
Parallel b&c, 32 threads:
  Real time             =   14.36 sec. (2567.17 ticks)
  Sync time (average)   =    1.18 sec.
  Wait time (average)   =    0.00 sec.
                          ------------
Total (root+branch&cut) =   21.66 sec. (8014.15 ticks)

Solution pool: 1 solution saved.

MIP - Integer optimal, tolerance (0.01/1e-06):  Objective =  5.3995102686e+03
Current MIP best bound =  5.4003071600e+03 (gap = 0.796891, 0.01%)
Solution time =   21.67 sec.  Iterations = 78339  Nodes = 3307 (84)
Deterministic time = 8014.47 ticks  (369.81 ticks/sec)

CPLEX> Incumbent solution written to file 'C:\Users\llavin\Desktop\test826\logs\tmpbk37zfov.cplex.sol'.
CPLEX> Exporting results... 
